###############################################################################
# Packmol 输入文件 — 多层膜-水-离子体系组装
# 输出文件: system.pdb
#
# ═══════════════════════════════════════════════════════════════════════════
# 【这是什么？】
#   这个文件是 Packmol 软件的"施工图纸"。Packmol 会把多个独立的分子/结构
#   PDB 文件按照你指定的位置和数量，拼装成一个完整的大体系 PDB 文件。
#
# 【怎么用？】
#   在命令行中运行:  packmol < packmol.inp
#   前提是已安装 Packmol 软件（免费开源，官网: https://m3g.github.io/packmol/）
#
# 【耗时提示】
#   因为要放置 66800 个水分子，运行可能需要几十分钟到几小时，
#   这是正常现象，请耐心等待。
# ═══════════════════════════════════════════════════════════════════════════
#
# 整个体系的最终结构（从下到上）:
#
#   z=800  ┌──────────────────────────────────┐
#          │                                   │
#          │    上真空区 (268 Å 厚)             │  ← 没有任何原子
#          │    模拟中这里是气相或空区域         │
#   z=532  ├── smx 石墨烯上膜 ────────────────┤  ← 4032 个 CG 碳原子（单原子层）
#          │                                   │
#          │    水1 区 (100 Å 厚)              │  ← 33,400 个水分子 (力场类型 type-6/7)
#          │    纯水，没有离子                  │     共 100,200 个原子
#   z=432  ├──────────────────────────────────┤
#          │   ▓▓▓▓▓▓ CNT 膜 ▓▓▓▓▓▓▓▓▓▓▓▓   │  ← 7,136 个碳原子 (16 层石墨烯结构)
#          │   实际厚度约 16.8 Å               │     作用: 选择性过滤膜
#   z=368  ├──────────────────────────────────┤
#          │                                   │
#          │    水2 + NaCl 区 (100 Å 厚)       │  ← 33,400 水分子 (力场类型 type-8/9)
#          │    含 0.5 M 氯化钠溶液            │     301 个 Na+ + 301 个 Cl-
#   z=268  ├── smx 石墨烯下膜 ────────────────┤  ← 4032 个 CG 碳原子（单原子层）
#          │                                   │
#          │    下真空区 (268 Å 厚)             │  ← 没有任何原子
#   z=0    └──────────────────────────────────┘
#
#   ←──── 盒子宽度和深度 = 100 Å × 100 Å ────→
#
# 【总原子数】216,202 个
# 【盒子尺寸】100 × 100 × 800 Å（埃，1 Å = 0.1 纳米）
# 【真空占比】67%（上下真空各 268 Å）
###############################################################################


# ═══════════════════════════════════════════════════════════════════════════
# 全局设置 — 这些设置影响整个体系的组装方式
# ═══════════════════════════════════════════════════════════════════════════

# tolerance: 原子间最小允许距离（单位：Å）
#   含义: Packmol 在放置分子时，会确保任何两个不同分子的原子
#         之间的距离不小于这个值。
#   作用: 防止原子重叠，避免后续分子动力学模拟中原子间产生
#         巨大的排斥力导致体系爆炸。
#   典型值: 1.0~2.0 Å。设太小(如 0.5)可能导致重叠；太大(如 5.0)
#          Packmol 可能找不到足够的空间放置所有分子。
#   这里用 2.0 Å：对水分子来说足够安全，且不会过度限制空间。
tolerance 2.0

# filetype: 输出文件的格式
#   这里用 pdb 格式（Protein Data Bank），这是分子模拟领域
#   最通用的格式之一，可以被 Materials Studio、VMD、LAMMPS
#   等多数软件读取。
filetype pdb

# output: 输出文件的文件名
#   所有组分拼装完成后，结果会写入这个文件。
#   你可以改成任意名字，如 my_system.pdb
output system.pdb

# seed: 随机数种子
#   Packmol 在放置分子时会用到随机数（比如水分子的初始位置和朝向）。
#   seed -1 表示用系统时间作为种子——每次运行结果都不同。
#   如果设为一个固定整数（如 seed 12345），则每次运行结果完全一样
#   （可重现，用于调试）。
#   建议: 最终生产运行用 seed -1，调试时用固定值。
seed -1


# ═══════════════════════════════════════════════════════════════════════════
# 第一部分: smx 石墨烯下膜 @ z=268
# ═══════════════════════════════════════════════════════════════════════════
#
# 【这是什么？】
#   一层由粗粒化（CG）碳珠子构成的石墨烯薄膜，位于体系底部上方。
#   它的作用类似一个"底座"或"过滤层"。
#
# 【位置说明】
#   smx.pdb 文件中所有原子的原始 z 坐标都是 10.007 Å（单原子层）。
#   fixed 命令把它的质心移动到 (49.77, 49.89, 268.00)，旋转角全为 0。
#   这相当于整体向上平移了 257.993 Å。
#   最终这层膜在 z=268 Å 处，正好是水2区域的底部边界。
#
# 【与后续模拟的关系】
#   - 这层膜会在模拟中作为固定的"墙壁"或"电极"
#   - 水分子和离子可以在它上方自由运动，但不能穿过它
#   - 它和上膜之间的区域就是我们要模拟的"过滤通道"
#
# 【fixed 语法说明】
#   格式: fixed x y z alpha beta gamma
#     x, y, z         = 分子质心的目标坐标（Å）
#     alpha, beta, gamma = 绕 x, y, z 轴的旋转角度（度）
#                         这里全部设为 0，保持原始平面朝向，不做任何旋转
#
# 【如果修改这些数字会怎样？】
#   改变 z 会影响膜上方水区域的厚度。
#   例如 z=218 会让水2区变厚 50 Å，水2区体积增大，
#   需要相应增加水分子数量以保持密度。
# ═══════════════════════════════════════════════════════════════════════════
structure smx.pdb
  # number: 要放置的这个结构的份数
  #   这里为 1，表示只放一片膜
  number 1

  # fixed: 固定位置 + 零旋转 = 纯刚体平移
  fixed 49.77 49.89 268.00 0. 0. 0.
end structure


# ═══════════════════════════════════════════════════════════════════════════
# 第二部分: 水2 + NaCl 溶液 @ z=268 ~ 368
# ═══════════════════════════════════════════════════════════════════════════
#
# 【这是什么？】
#   在下膜上方 100 Å 厚的区域中填充纯水（力场类型 type-8/9）
#   和 0.5 M 氯化钠溶液。
#
# 【水分子数量 33400 是怎么算出来的？】
#   该区域体积 = 100 × 100 × 100 = 1,000,000 Å³
#   常温水的密度约 1 g/cm³，即每 Å³ 有 0.0334 个水分子。
#   所以需要 1,000,000 × 0.0334 ≈ 33,400 个水分子。
#   这个数量刚好让水的密度接近真实值 (1 g/cm³)。
#
# 【NaCl 数量 301 是怎么算出来的？】
#   0.5 M (mol/L) 的溶液，在 1,000,000 Å³ 的体积中:
#   0.5 × (6.022×10²³) × (1×10⁻²¹ L) ≈ 301 个离子对
#   所以 Na+ 和 Cl- 各 301 个。
#
# 【如果改这些参数会怎样？】
#   - 减少水分子数 → 密度降低，模拟中水会"蒸发"
#   - 增加水分子数 → 密度升高，水被"压缩"
#   - 改变 NaCl 数量 → 改变盐浓度，会影响离子传导率等性质
#
# 【水2 vs 水1 的区别】
#   两者都是水分子，几何形状完全相同。
#   但在 Materials Studio 中会被分配不同的力场类型:
#   水2 → type-8/9, 水1 → type-6/7
#   这样可以分别统计和调控不同区域的水分子行为。
# ═══════════════════════════════════════════════════════════════════════════

# --- 水2分子 ---
# water2.pdb 包含 1 个水分子（1个O + 2个H 共3个原子）
# Packmol 会把这份水分子复制 33400 份，随机旋转和平移，
# 填充到指定的盒子区域内。
# 注意: 两个水分子之间以及水与膜原子之间会保持 ≥2.0 Å (tolerance) 的距离。
structure water2.pdb
  number 33400
  # inside box: 限制分子只能出现在这个长方体区域内
  # 格式: inside box x_min y_min z_min  x_max y_max z_max
  # 这里: x 0~100, y 0~100, z 268~368
  # 268 是下膜的 z 位置，368 是 CNT 膜下边界
  inside box 0. 0. 268. 100. 100. 368.
end structure

# --- 钠离子 Na+ ---
# Na.pdb 包含 1 个钠离子（带 1 个正电荷）
# 它在溶液中自由移动，与 Cl- 一起构成盐溶液。
# 注意: PDB 文件中标注了电荷 Na1+，在力场分配时会被识别。
structure Na.pdb
  number 301
  inside box 0. 0. 268. 100. 100. 368.
end structure

# --- 氯离子 Cl- ---
# Cl.pdb 包含 1 个氯离子（带 1 个负电荷）
# PDB 文件中标注了电荷 Cl1-。
structure Cl.pdb
  number 301
  inside box 0. 0. 268. 100. 100. 368.
end structure


# ═══════════════════════════════════════════════════════════════════════════
# 第三部分: CNT 膜 @ z=368~432 (居中放置)
# ═══════════════════════════════════════════════════════════════════════════
#
# 【这是什么？】
#   CNT 膜 — 由碳纳米管或多层石墨烯构成的薄膜过滤层。
#   它有 7,136 个碳原子，分布在约 16 层中，总厚度约 16.8 Å。
#
# 【位置说明】
#   membrane_a0.5.pdb 原始 z 范围是 100.441~117.196 Å（在文件的局部坐标中），
#   质心在 z=108.82 Å。
#   我们把它平移到质心 z=400 Å，使得膜大致位于 368~432 区间的中间。
#   平移量 dz = 400.00 - 108.82 = 291.18 Å。
#
# 【实际位置 VS 设计区间】
#   设计图说 CNT 膜占据 z=368~432 (64 Å 厚)，
#   但文件中的膜实际厚度只有 ~16.8 Å。
#   所以膜居中后，实际范围是 391.62~408.38 Å。
#   膜上下各有约 23.6 Å 的真空区域（在 368~432 区间内）。
#
# 【如果改位置会怎样？】
#   - 膜放得太低 → 可能压到水2区的分子
#   - 膜放得太高 → 水1区空间减小
#   - 如果想填满 368~432，需要在 MS 中扩展膜结构
#
# 【注意】
#   这个 CNT 膜文件内部含有 CONECT 键连接记录，
#   Packmol 会保留这些键信息输出到最终的 system.pdb。
# ═══════════════════════════════════════════════════════════════════════════
structure membrane_a0.5.pdb
  number 1
  # fixed: 固定位置 + 零旋转 = 纯刚体平移
  fixed 49.64 49.33 400.00 0. 0. 0.
end structure


# ═══════════════════════════════════════════════════════════════════════════
# 第四部分: 水1 @ z=432 ~ 532
# ═══════════════════════════════════════════════════════════════════════════
#
# 【这是什么？】
#   CNT 膜上方的纯水区域，厚度 100 Å。
#   与下半部分的水2不同，这里没有 NaCl 离子。
#   这是为了模拟"给水侧"和"出水侧"的成分差异。
#
# 【水1和水2为什么分开？】
#   在实际过滤模拟中，膜的一侧是盐水（水2），另一侧是纯水（水1），
#   这样可以看到水分子和离子如何通过膜进行分离。
#   两种水在 Materials Studio 中分配不同的力场类型
#   (水1→type-6/7, 水2→type-8/9)，便于分别统计性质。
#
# 【水分子数量说明】
#   同样按密度 1 g/cm³ 计算，100×100×100 Å³ 体积需要
#   约 33,400 个水分子。与下半部分数量相同。
#
# 【如果改数量会怎样？】
#   数量不匹配 → Packmol 可能报告错误（空间不足或找不到位置），
#   或者水的密度不正确，影响后续模拟结果。
# ═══════════════════════════════════════════════════════════════════════════
structure water1.pdb
  number 33400
  inside box 0. 0. 432. 100. 100. 532.
end structure


# ═══════════════════════════════════════════════════════════════════════════
# 第五部分: smx 石墨烯上膜 @ z=532
# ═══════════════════════════════════════════════════════════════════════════
#
# 【这是什么？】
#   与下膜完全相同的石墨烯薄膜，位于体系顶部附近。
#   和下膜一起构成了"通道"的上下壁。
#
# 【位置说明】
#   使用同一个 smx.pdb 文件，但质心放在 z=532 处。
#   平移量 dz = 532.00 - 10.007 = 521.993 Å。
#   这层膜正好是水1区域的顶部边界(z=532)。
#
# 【为什么用同一个文件？】
#   上下膜结构相同，所以复用同一个 smx.pdb。
#   Packmol 允许在输入文件中多次引用同一个 PDB 文件，
#   每次指定不同的位置即可。
#   注意: 输出文件 system.pdb 中会包含两组独立的原子
#   （下膜原子序号 1~4032，上膜原子序号更靠后），
#   它们在 PDB 中就是不同的原子。
#
# 【实际效果】
#   上膜 + 下膜 + CNT 膜 + 水1 + 水2 = 完整的多层过滤体系。
#   最终体系可以导入 Materials Studio 进行力场分配，
#   然后输出为 LAMMPS data 文件进行分子动力学模拟。
# ═══════════════════════════════════════════════════════════════════════════
structure smx.pdb
  number 1
  # fixed: 固定位置 + 零旋转 = 纯刚体平移
  fixed 49.77 49.89 532.00 0. 0. 0.
end structure
