###############################################################################
# Packmol 输入文件 — 仅拼装固体组分（膜结构）
# 输出文件: solids_only.pdb
#
# ═══════════════════════════════════════════════════════════════════════════
# 【这是什么？】
#   简化版输入文件，只拼装三层固体膜结构，不包含水分子或离子。
#   运行速度极快（<1秒），用于快速验证膜的位置是否正确。
#
# 【运行方式】
#   packmol < packmol_solids.inp
#   （Packmol 20.x 版本已验证可用）
#
# 【三步走策略】
#   第一步（本文件）→ 只放固体膜，快速验证位置
#   第二步          → 确认无误后，再用 packmol.inp 填充水+离子
#   第三步          → 导入 MS 分配力场类型
#
# 【体系结构（从下到上）】
#   z=268   smx 石墨烯下膜 (4032 CG碳珠子)
#   z~400   CNT 膜 (7136 碳原子, 16层)
#   z=532   smx 石墨烯上膜 (4032 CG碳珠子)
#
#   盒子: 100 × 100 × 800 Å
#   总原子: 15,200 (仅三层膜)
# ═══════════════════════════════════════════════════════════════════════════

# ── 全局设置 ──
tolerance 2.0           # 原子间最小距离（Å），防止重叠
filetype pdb            # 输出 PDB 格式
output solids_only.pdb  # 输出文件名
seed -1                 # 随机种子：-1=每次不同，固定整数=可重现

# ═══════════════════════════════════════════════════════════════════════════
# 1. smx 石墨烯下膜 @ z=268
#
#    fixed 语法: fixed x y z alpha beta gamma
#      x, y, z         = 分子质心的目标坐标（Å）
#      alpha, beta, gamma = 绕 x, y, z 轴的旋转角度（度）
#                          全部设为 0 = 保持原始朝向，不做任何旋转
#
#    原始 smx.pdb 所有原子 z≈10.007（单层）
#    平移量 dz = 268.00 - 10.007 = +257.993
# ═══════════════════════════════════════════════════════════════════════════
structure smx.pdb
  number 1
  fixed 49.77 49.89 268.00 0. 0. 0.
end structure

# ═══════════════════════════════════════════════════════════════════════════
# 2. CNT 膜 @ z~400 (居中于 368~432 区间)
#
#    原始 membrane_a0.5.pdb:
#      z = 100.441 ~ 117.196, 质心 z=108.82
#    平移量 dz = 400.00 - 108.82 = +291.18
#    平移后 z 范围: 391.62 ~ 408.38 Å
#    上下各有 ~23.6 Å 真空间隙（在 368~432 区间内）
# ═══════════════════════════════════════════════════════════════════════════
structure membrane_a0.5.pdb
  number 1
  fixed 49.64 49.33 400.00 0. 0. 0.
end structure

# ═══════════════════════════════════════════════════════════════════════════
# 3. smx 石墨烯上膜 @ z=532
#
#    使用同一个 smx.pdb 文件
#    平移量 dz = 532.00 - 10.007 = +521.993
# ═══════════════════════════════════════════════════════════════════════════
structure smx.pdb
  number 1
  fixed 49.77 49.89 532.00 0. 0. 0.
end structure
